(declare-fun c_0 () Int)
(assert (and (< c_0 500) (>= c_0 0)))
(declare-fun c_1 () Int)
(assert (and (< c_1 500) (>= c_1 0)))
(declare-fun c_2 () Int)
(assert (and (< c_2 30) (>= c_2 0)))
(declare-fun c_3 () Int)
(assert (and (< c_3 40) (>= c_3 0)))
(declare-fun c_4 () Int)
(assert (and (< c_4 125) (>= c_4 0)))
(declare-fun c_5 () Int)
(assert (and (< c_5 125) (>= c_5 0)))
(declare-fun c_6 () Int)
(assert (and (< c_6 500) (>= c_6 0)))
(declare-fun c_7 () Int)
(assert (and (< c_7 125) (>= c_7 0)))
(declare-fun c_8 () Int)
(assert (and (< c_8 500) (>= c_8 0)))
(declare-fun c_9 () Int)
(assert (and (< c_9 30) (>= c_9 0)))
(declare-fun c_10 () Int)
(assert (and (< c_10 15) (>= c_10 0)))
(declare-fun c_11 () Int)
(assert (and (< c_11 500) (>= c_11 0)))
(declare-fun c_12 () Int)
(assert (and (< c_12 125) (>= c_12 0)))
(declare-fun c_13 () Int)
(assert (and (< c_13 8) (>= c_13 0)))
(declare-fun c_14 () Int)
(assert (and (< c_14 75) (>= c_14 0)))
(declare-fun c_15 () Int)
(assert (and (< c_15 500) (>= c_15 0)))
(declare-fun c_16 () Int)
(assert (and (< c_16 500) (>= c_16 0)))
(declare-fun c_17 () Int)
(assert (and (< c_17 125) (>= c_17 0)))
(declare-fun c_18 () Int)
(assert (and (< c_18 35) (>= c_18 0)))
(declare-fun c_19 () Int)
(assert (and (< c_19 500) (>= c_19 0)))
(declare-fun c_20 () Int)
(assert (and (< c_20 125) (>= c_20 0)))
(declare-fun c_21 () Int)
(assert (and (< c_21 125) (>= c_21 0)))
(declare-fun c_22 () Int)
(assert (and (< c_22 75) (>= c_22 0)))
(declare-fun c_23 () Int)
(assert (and (< c_23 125) (>= c_23 0)))
(declare-fun c_24 () Int)
(assert (and (< c_24 500) (>= c_24 0)))
(declare-fun c_25 () Int)
(assert (and (< c_25 125) (>= c_25 0)))
(declare-fun c_26 () Int)
(assert (and (< c_26 125) (>= c_26 0)))
(declare-fun c_27 () Int)
(assert (and (< c_27 125) (>= c_27 0)))
(declare-fun c_28 () Int)
(assert (and (< c_28 30) (>= c_28 0)))
(declare-fun c_29 () Int)
(assert (and (< c_29 500) (>= c_29 0)))
(declare-fun c_30 () Int)
(assert (and (< c_30 30) (>= c_30 0)))
(declare-fun c_31 () Int)
(assert (and (< c_31 35) (>= c_31 0)))
(declare-fun c_32 () Int)
(assert (and (< c_32 8) (>= c_32 0)))
(declare-fun c_33 () Int)
(assert (and (< c_33 125) (>= c_33 0)))
(declare-fun c_34 () Int)
(assert (and (< c_34 125) (>= c_34 0)))
(assert (not (or (or (or (or (or (or (or (or (or (or (or (or (or (or (or (or (or (or (or (or (or (or (or (or (or (or (or (or (or (or (or (or (or (or (or (or (or (or (or (or (or (or (or (or (or (or (or (or (or (or (or (or (or (or (or (or (or (or (or (or (or (or (or (or (or (or (or (or (or (or (or (or (or (or (or (or (or (or (or (or (or (or (or (or (or (or (or (or (or (= c_0 c_1) (= c_0 c_6)) (= c_0 c_8)) (= c_0 c_11)) (= c_0 c_15)) (= c_0 c_16)) (= c_0 c_19)) (= c_0 c_24)) (= c_0 c_29)) (= c_1 c_0)) (= c_1 c_6)) (= c_1 c_8)) (= c_1 c_11)) (= c_1 c_15)) (= c_1 c_16)) (= c_1 c_19)) (= c_1 c_24)) (= c_1 c_29)) (= c_6 c_0)) (= c_6 c_1)) (= c_6 c_8)) (= c_6 c_11)) (= c_6 c_15)) (= c_6 c_16)) (= c_6 c_19)) (= c_6 c_24)) (= c_6 c_29)) (= c_8 c_0)) (= c_8 c_1)) (= c_8 c_6)) (= c_8 c_11)) (= c_8 c_15)) (= c_8 c_16)) (= c_8 c_19)) (= c_8 c_24)) (= c_8 c_29)) (= c_11 c_0)) (= c_11 c_1)) (= c_11 c_6)) (= c_11 c_8)) (= c_11 c_15)) (= c_11 c_16)) (= c_11 c_19)) (= c_11 c_24)) (= c_11 c_29)) (= c_15 c_0)) (= c_15 c_1)) (= c_15 c_6)) (= c_15 c_8)) (= c_15 c_11)) (= c_15 c_16)) (= c_15 c_19)) (= c_15 c_24)) (= c_15 c_29)) (= c_16 c_0)) (= c_16 c_1)) (= c_16 c_6)) (= c_16 c_8)) (= c_16 c_11)) (= c_16 c_15)) (= c_16 c_19)) (= c_16 c_24)) (= c_16 c_29)) (= c_19 c_0)) (= c_19 c_1)) (= c_19 c_6)) (= c_19 c_8)) (= c_19 c_11)) (= c_19 c_15)) (= c_19 c_16)) (= c_19 c_24)) (= c_19 c_29)) (= c_24 c_0)) (= c_24 c_1)) (= c_24 c_6)) (= c_24 c_8)) (= c_24 c_11)) (= c_24 c_15)) (= c_24 c_16)) (= c_24 c_19)) (= c_24 c_29)) (= c_29 c_0)) (= c_29 c_1)) (= c_29 c_6)) (= c_29 c_8)) (= c_29 c_11)) (= c_29 c_15)) (= c_29 c_16)) (= c_29 c_19)) (= c_29 c_24))))
(assert (not (or (= c_14 c_22) (= c_22 c_14))))
(assert (not (or (= c_18 c_31) (= c_31 c_18))))
(assert (not (or (or (or (or (or (or (or (or (or (or (or (or (or (or (or (or (or (or (or (or (or (or (or (or (or (or (or (or (or (or (or (or (or (or (or (or (or (or (or (or (or (or (or (or (or (or (or (or (or (or (or (or (or (or (or (or (or (or (or (or (or (or (or (or (or (or (or (or (or (or (or (or (or (or (or (or (or (or (or (or (or (or (or (or (or (or (or (or (or (or (or (or (or (or (or (or (or (or (or (or (or (or (or (or (or (or (or (or (or (or (or (or (or (or (or (or (or (or (or (or (or (or (or (or (or (or (or (or (or (or (or (or (or (or (or (or (or (or (or (or (or (or (or (or (or (or (or (or (or (or (or (or (or (or (or (= c_4 c_5) (= c_4 c_7)) (= c_4 c_12)) (= c_4 c_17)) (= c_4 c_20)) (= c_4 c_21)) (= c_4 c_23)) (= c_4 c_25)) (= c_4 c_26)) (= c_4 c_27)) (= c_4 c_33)) (= c_4 c_34)) (= c_5 c_4)) (= c_5 c_7)) (= c_5 c_12)) (= c_5 c_17)) (= c_5 c_20)) (= c_5 c_21)) (= c_5 c_23)) (= c_5 c_25)) (= c_5 c_26)) (= c_5 c_27)) (= c_5 c_33)) (= c_5 c_34)) (= c_7 c_4)) (= c_7 c_5)) (= c_7 c_12)) (= c_7 c_17)) (= c_7 c_20)) (= c_7 c_21)) (= c_7 c_23)) (= c_7 c_25)) (= c_7 c_26)) (= c_7 c_27)) (= c_7 c_33)) (= c_7 c_34)) (= c_12 c_4)) (= c_12 c_5)) (= c_12 c_7)) (= c_12 c_17)) (= c_12 c_20)) (= c_12 c_21)) (= c_12 c_23)) (= c_12 c_25)) (= c_12 c_26)) (= c_12 c_27)) (= c_12 c_33)) (= c_12 c_34)) (= c_17 c_4)) (= c_17 c_5)) (= c_17 c_7)) (= c_17 c_12)) (= c_17 c_20)) (= c_17 c_21)) (= c_17 c_23)) (= c_17 c_25)) (= c_17 c_26)) (= c_17 c_27)) (= c_17 c_33)) (= c_17 c_34)) (= c_20 c_4)) (= c_20 c_5)) (= c_20 c_7)) (= c_20 c_12)) (= c_20 c_17)) (= c_20 c_21)) (= c_20 c_23)) (= c_20 c_25)) (= c_20 c_26)) (= c_20 c_27)) (= c_20 c_33)) (= c_20 c_34)) (= c_21 c_4)) (= c_21 c_5)) (= c_21 c_7)) (= c_21 c_12)) (= c_21 c_17)) (= c_21 c_20)) (= c_21 c_23)) (= c_21 c_25)) (= c_21 c_26)) (= c_21 c_27)) (= c_21 c_33)) (= c_21 c_34)) (= c_23 c_4)) (= c_23 c_5)) (= c_23 c_7)) (= c_23 c_12)) (= c_23 c_17)) (= c_23 c_20)) (= c_23 c_21)) (= c_23 c_25)) (= c_23 c_26)) (= c_23 c_27)) (= c_23 c_33)) (= c_23 c_34)) (= c_25 c_4)) (= c_25 c_5)) (= c_25 c_7)) (= c_25 c_12)) (= c_25 c_17)) (= c_25 c_20)) (= c_25 c_21)) (= c_25 c_23)) (= c_25 c_26)) (= c_25 c_27)) (= c_25 c_33)) (= c_25 c_34)) (= c_26 c_4)) (= c_26 c_5)) (= c_26 c_7)) (= c_26 c_12)) (= c_26 c_17)) (= c_26 c_20)) (= c_26 c_21)) (= c_26 c_23)) (= c_26 c_25)) (= c_26 c_27)) (= c_26 c_33)) (= c_26 c_34)) (= c_27 c_4)) (= c_27 c_5)) (= c_27 c_7)) (= c_27 c_12)) (= c_27 c_17)) (= c_27 c_20)) (= c_27 c_21)) (= c_27 c_23)) (= c_27 c_25)) (= c_27 c_26)) (= c_27 c_33)) (= c_27 c_34)) (= c_33 c_4)) (= c_33 c_5)) (= c_33 c_7)) (= c_33 c_12)) (= c_33 c_17)) (= c_33 c_20)) (= c_33 c_21)) (= c_33 c_23)) (= c_33 c_25)) (= c_33 c_26)) (= c_33 c_27)) (= c_33 c_34)) (= c_34 c_4)) (= c_34 c_5)) (= c_34 c_7)) (= c_34 c_12)) (= c_34 c_17)) (= c_34 c_20)) (= c_34 c_21)) (= c_34 c_23)) (= c_34 c_25)) (= c_34 c_26)) (= c_34 c_27)) (= c_34 c_33))))
(assert (not (or (= c_2 c_9) (= c_9 c_2))))
(declare-fun w_0 () Int)
(declare-fun w_1 () Int)
(assert (and (and (< w_0 500) (>= w_0 0)) (and (< w_1 15) (>= w_1 0))))
(declare-fun w_2 () Int)
(declare-fun w_3 () Int)
(assert (and (and (< w_2 8) (>= w_2 0)) (and (< w_3 30) (>= w_3 0))))
(declare-fun w_4 () Int)
(declare-fun w_5 () Int)
(assert (and (and (< w_4 125) (>= w_4 0)) (and (< w_5 35) (>= w_5 0))))
(declare-fun w_6 () Int)
(declare-fun w_7 () Int)
(assert (and (and (< w_6 500) (>= w_6 0)) (and (< w_7 30) (>= w_7 0))))
(declare-fun w_8 () Int)
(declare-fun w_9 () Int)
(assert (and (and (< w_8 500) (>= w_8 0)) (and (< w_9 15) (>= w_9 0))))
(declare-fun w_10 () Int)
(declare-fun w_11 () Int)
(assert (and (and (< w_10 500) (>= w_10 0)) (and (< w_11 30) (>= w_11 0))))
(declare-fun w_12 () Int)
(declare-fun w_13 () Int)
(assert (and (and (< w_12 500) (>= w_12 0)) (and (< w_13 8) (>= w_13 0))))
(declare-fun w_14 () Int)
(declare-fun w_15 () Int)
(assert (and (and (< w_14 125) (>= w_14 0)) (and (< w_15 30) (>= w_15 0))))
(declare-fun w_16 () Int)
(declare-fun w_17 () Int)
(assert (and (and (< w_16 30) (>= w_16 0)) (and (< w_17 8) (>= w_17 0))))
(declare-fun w_18 () Int)
(declare-fun w_19 () Int)
(assert (and (and (< w_18 30) (>= w_18 0)) (and (< w_19 40) (>= w_19 0))))
(declare-fun w_20 () Int)
(declare-fun w_21 () Int)
(assert (and (and (< w_20 125) (>= w_20 0)) (and (< w_21 40) (>= w_21 0))))
(declare-fun w_22 () Int)
(declare-fun w_23 () Int)
(assert (and (and (< w_22 500) (>= w_22 0)) (and (< w_23 8) (>= w_23 0))))
(declare-fun w_24 () Int)
(declare-fun w_25 () Int)
(assert (and (and (< w_24 125) (>= w_24 0)) (and (< w_25 35) (>= w_25 0))))
(declare-fun w_26 () Int)
(declare-fun w_27 () Int)
(assert (and (and (< w_26 125) (>= w_26 0)) (and (< w_27 35) (>= w_27 0))))
(declare-fun w_28 () Int)
(declare-fun w_29 () Int)
(assert (and (and (< w_28 125) (>= w_28 0)) (and (< w_29 35) (>= w_29 0))))
(declare-fun w_30 () Int)
(declare-fun w_31 () Int)
(assert (and (and (< w_30 35) (>= w_30 0)) (and (< w_31 75) (>= w_31 0))))
(declare-fun w_32 () Int)
(assert (and (and (< w_30 35) (>= w_30 0)) (and (< w_32 15) (>= w_32 0))))
(declare-fun w_33 () Int)
(declare-fun w_34 () Int)
(assert (and (and (< w_33 15) (>= w_33 0)) (and (< w_34 30) (>= w_34 0))))
(declare-fun w_35 () Int)
(declare-fun w_36 () Int)
(assert (and (and (< w_35 30) (>= w_35 0)) (and (< w_36 8) (>= w_36 0))))
(declare-fun w_37 () Int)
(declare-fun w_38 () Int)
(assert (and (and (< w_37 35) (>= w_37 0)) (and (< w_38 30) (>= w_38 0))))
(declare-fun w_39 () Int)
(assert (and (and (< w_37 35) (>= w_37 0)) (and (< w_39 75) (>= w_39 0))))
(declare-fun w_40 () Int)
(declare-fun w_41 () Int)
(assert (and (and (< w_40 500) (>= w_40 0)) (and (< w_41 30) (>= w_41 0))))
(declare-fun w_42 () Int)
(declare-fun w_43 () Int)
(assert (and (and (< w_42 500) (>= w_42 0)) (and (< w_43 30) (>= w_43 0))))
(declare-fun w_44 () Int)
(declare-fun w_45 () Int)
(assert (and (and (< w_44 500) (>= w_44 0)) (and (< w_45 8) (>= w_45 0))))
(declare-fun w_46 () Int)
(declare-fun w_47 () Int)
(assert (and (and (< w_46 125) (>= w_46 0)) (and (< w_47 40) (>= w_47 0))))
(declare-fun w_48 () Int)
(declare-fun w_49 () Int)
(assert (and (and (< w_48 125) (>= w_48 0)) (and (< w_49 35) (>= w_49 0))))
(declare-fun w_50 () Int)
(declare-fun w_51 () Int)
(assert (and (and (< w_50 8) (>= w_50 0)) (and (< w_51 30) (>= w_51 0))))
(declare-fun w_52 () Int)
(declare-fun w_53 () Int)
(assert (and (and (< w_52 125) (>= w_52 0)) (and (< w_53 15) (>= w_53 0))))
(declare-fun w_54 () Int)
(declare-fun w_55 () Int)
(assert (and (and (< w_54 125) (>= w_54 0)) (and (< w_55 8) (>= w_55 0))))
(declare-fun w_56 () Int)
(declare-fun w_57 () Int)
(assert (and (and (< w_56 30) (>= w_56 0)) (and (< w_57 35) (>= w_57 0))))
(declare-fun w_58 () Int)
(declare-fun w_59 () Int)
(assert (and (and (< w_58 125) (>= w_58 0)) (and (< w_59 35) (>= w_59 0))))
(declare-fun w_60 () Int)
(declare-fun w_61 () Int)
(assert (and (and (< w_60 125) (>= w_60 0)) (and (< w_61 35) (>= w_61 0))))
(declare-fun w_62 () Int)
(declare-fun w_63 () Int)
(assert (and (and (< w_62 125) (>= w_62 0)) (and (< w_63 35) (>= w_63 0))))
(declare-fun w_64 () Int)
(declare-fun w_65 () Int)
(assert (and (and (< w_64 40) (>= w_64 0)) (and (< w_65 35) (>= w_65 0))))
(declare-fun w_66 () Int)
(declare-fun w_67 () Int)
(assert (and (and (< w_66 500) (>= w_66 0)) (and (< w_67 30) (>= w_67 0))))
(assert (or (= w_56 w_11) (= w_56 w_3)))
(assert (or (or (= w_64 w_47) (= w_64 w_21)) (= w_64 w_19)))
(assert (or (= w_51 w_43) (= w_51 w_18)))
(assert (or (or (or (= w_53 w_33) (= w_53 w_32)) (= w_53 w_9)) (= w_53 w_1)))
(assert (or (or (= w_55 w_45) (= w_55 w_17)) (= w_55 w_2)))
(assert (or (or (or (or (= w_63 w_61) (= w_63 w_59)) (= w_63 w_57)) (= w_63 w_30)) (= w_63 w_5)))
(assert (or (or (or (= w_67 w_41) (= w_67 w_35)) (= w_67 w_34)) (= w_67 w_7)))
(assert (or (or (or (or (= w_65 w_49) (= w_65 w_37)) (= w_65 w_29)) (= w_65 w_27)) (= w_65 w_25)))
(assert (or (= w_38 w_16) (= w_38 w_15)))
(assert (or (or (= w_50 w_36) (= w_50 w_23)) (= w_50 w_13)))
(check-sat)
(get-model)
